Traveling Salesman Problem/TSP_generados/Aleatorio1621103376_12.tsp
NAME: Aleatorio1621103376_12.tsp
COMMENT: Randomly generated scenario
TYPE: TSP
DIMENSION: 12
EDGE_WEIGHT_TYPE: ATT
NODE_COORD_SECTION
1 2.2 47.92
2 21.99 16.97
3 2.06 41.03
4 29.3 12.96
5 48.29 6.0
6 3.39 37.55
7 29.66 29.22
8 3.71 28.25
9 44.93 30.45
10 11.61 16.5
11 40.6 8.69
12 5.88 23.7
