Traveling Salesman Problem/TSP_generados/Aleatorio1621103376_12.opt.tour
NAME: Aleatorio1621103376_12.opt.tour
COMMENT: Optimal solution for Aleatorio1621103376_12 (146.34207692996705)
TYPE: TOUR
DIMENSION: 12
TOUR_SECTION
1 3 6 8 12 10 2 4 11 5 9 7
-1
EOF
